Route #1: 12 59 56 23 35 45 48 52 32 14
Route #2: 
Route #3: 25 8 30 22 38 62 17 61 34 47 55 41 57 50
Route #4: 20 54 3 42 6 10 7 28 9 13 36 24 58 33 27
Route #5: 44 1 53 11
Route #6: 
Route #7: 21 5 31 39
Route #8: 37 49 60 16 26 19 4 2 15 46 40 43
Route #9: 
Route #10: 63 29 51 18
cost 1567.3548791430514
